64
Lattice="7.198552673273158 0.0 0.0 -3.599276336636579 6.234129485534937 0.0 0.0 0.0 32.45769126236405" Properties=species:S:1:pos:R:3:spacegroup_kinds:I:1:tags:I:1 spacegroup="P 1" unit_cell=conventional occupancy="_JSON {\"0\": {\"Zr\": 1}, \"1\": {\"Zr\": 1}, \"2\": {\"Zr\": 1}, \"3\": {\"Zr\": 1}, \"4\": {\"O\": 1}, \"5\": {\"O\": 1}, \"6\": {\"O\": 1}, \"7\": {\"O\": 1}, \"8\": {\"O\": 1}, \"9\": {\"O\": 1}, \"10\": {\"O\": 1}, \"11\": {\"O\": 1}}" pbc="T T T"
Zr       0.00000000       0.00000000       0.00000000        0        3
Zr       1.79963817       3.11706474       0.00000000        1        3
Zr       3.59927634       0.00000000       0.00000000        2        3
Zr      -1.79963817       3.11706474       0.00000000        3        3
O        3.59927634       0.00000000       2.20409762        4        3
O        0.00000000       4.15608632       0.73469921        5        3
O       -1.79963817       3.11706474       2.20409762        6        3
O        5.39891450       1.03902158       0.73469921        7        3
O        0.00000000       0.00000000       2.20409762        8        3
O        3.59927634       4.15608632       0.73469921        9        3
O        1.79963817       3.11706474       2.20409762       10        3
O        1.79963817       1.03902158       0.73469921       11        3
Zr       0.00000000       4.15608632       2.93879682        0        2
Zr       5.39891450       1.03902158       2.93879682        1        2
Zr       3.59927634       4.15608632       2.93879682        2        2
Zr       1.79963817       1.03902158       2.93879682        3        2
O        3.59927634       4.15608632       5.14289444        4        2
O        3.59927634       2.07804316       3.67349603        5        2
O        1.79963817       1.03902158       5.14289444        6        2
O       -1.79963817       5.19510790       3.67349603        7        2
O        0.00000000       4.15608632       5.14289444        8        2
O        0.00000000       2.07804316       3.67349603        9        2
O        5.39891450       1.03902158       5.14289444       10        2
O        1.79963817       5.19510790       3.67349603       11        2
Zr       3.59927634       2.07804316       5.87759365        0        1
Zr      -1.79963817       5.19510790       5.87759365        1        1
Zr      -0.00000000       2.07804316       5.87759365        2        1
Zr       1.79963817       5.19510790       5.87759365        3        1
O        0.00000000       2.07804316       8.08169126        4        1
O       -0.00000000       0.00000000       6.61229285        5        1
O        1.79963817       5.19510790       8.08169126        6        1
O        1.79963817       3.11706474       6.61229285        7        1
O        3.59927634       2.07804316       8.08169126        8        1
O        3.59927634       0.00000000       6.61229285        9        1
O       -1.79963817       5.19510790       8.08169126       10        1
O       -1.79963817       3.11706474       6.61229285       11        1
La       4.79903152       0.00000208      10.88169126        0        2
La      -2.39951396       4.15608425      13.07369126        0        2
Na       3.61127392       2.63911482      10.88169126        1        2
Na      -0.49190110       3.88594071      10.88169126        1        2
Na      -3.11937283       5.94320344      10.88169126        1        2
Na       5.98679631       1.51697151      13.07369126        1        2
Na       2.89141866       0.27014561      13.07369126        1        2
Na       1.91961405       4.44701237      13.07369126        1        2
Cl       1.88362128       4.50935366      10.88169126        2        2
Cl       5.95080354       1.45463021      10.88169126        2        2
Cl       2.96340418       0.27014561      10.88169126        2        2
Cl      -3.08338006       5.88086215      13.07369126        2        2
Cl       3.64726669       2.70145611      13.07369126        2        2
Cl      -0.56388663       3.88594071      13.07369126        2        2
La       4.79903152       0.00000208      15.26569126        0        1
La      -2.39951396       4.15608425      17.45769126        0        1
Na       3.61127392       2.63911482      15.26569126        1        1
Na      -0.49190110       3.88594071      15.26569126        1        1
Na      -3.11937283       5.94320344      15.26569126        1        1
Na       5.98679631       1.51697151      17.45769126        1        1
Na       2.89141866       0.27014561      17.45769126        1        1
Na       1.91961405       4.44701237      17.45769126        1        1
Cl       1.88362128       4.50935366      15.26569126        2        1
Cl       5.95080354       1.45463021      15.26569126        2        1
Cl       2.96340418       0.27014561      15.26569126        2        1
Cl      -3.08338006       5.88086215      17.45769126        2        1
Cl       3.64726669       2.70145611      17.45769126        2        1
Cl      -0.56388663       3.88594071      17.45769126        2        1
